Solving original (integer) problem with strategy gdp.binary_multiplication...
--- Job model.gms Start 02/19/26 09:44:27 52.2.0 d8e408be LEX-LEG x86 64bit/Linux
--- Applying:
    /package/gams/52.2/gmsprmun.txt
--- GAMS Parameters defined
    Input /local/scratch/a/sgusev/repos/k_means/data/gams_scip_gdp.binary_multiplication/no_mode/2026-02-19_09-44-26/original/model.gms
    Output /local/scratch/a/sgusev/repos/k_means/data/gams_scip_gdp.binary_multiplication/no_mode/2026-02-19_09-44-26/original/output.lst
    ScrDir /local/scratch/a/sgusev/repos/k_means/data/gams_scip_gdp.binary_multiplication/no_mode/2026-02-19_09-44-26/original/225a/
    SysDir /package/gams/52.2/
    CurDir /local/scratch/a/sgusev/repos/k_means/data/gams_scip_gdp.binary_multiplication/no_mode/2026-02-19_09-44-26/original/
    LogOption 3
    AppendLog 1
Licensee: David Bernal / SECQUOIA Research Group         G251008+0003Ac-GEN
          Purdue University, Davidson School of Chemical EngineeringDCE4838
          225a/gamslice.dat
          5a82958a-fbca-4a23
          node:66820903 mem:995 cores:48 ipport:39041 v:2                  
          Evaluation license: Not for commercial or production use
          The time-limited license stops working on : Jun 30, 2027
System information: 48 physical cores and 995 Gb physical memory detected
GAMS 52.2.0   Copyright (C) 1987-2025 GAMS Development. All rights reserved
--- Starting compilation
--- model.gms(221) 2 Mb
--- $echo File /local/scratch/a/sgusev/repos/k_means/data/gams_scip_gdp.binary_multiplication/no_mode/2026-02-19_09-44-26/original/scip.opt
--- model.gms(401) 2 Mb
--- Starting execution: elapsed 0:00:00.006
--- model.gms(231) 3 Mb
--- Generating MINLP model GAMS_MODEL
--- model.gms(235) 5 Mb
---   54 rows  59 columns  217 non-zeroes
---   440 nl-code  160 nl-non-zeroes
---   40 discrete-columns
--- Range statistics (absolute non-zero finite values)
--- RHS       [min, max] : [ 1.000E+00, 1.000E+00] - Zero values observed as well
--- Bound     [min, max] : [ 1.000E+00, 4.000E+01] - Zero values observed as well
--- Matrix    [min, max] : [ 2.955E-02, 1.073E+00] - Zero values observed as well
--- model.gms(235) 3 Mb
--- Executing SCIP (Solvelink=5): elapsed 0:00:00.008

SCIP             52.2.0 d8e408be Dec 8, 2025           LEG x86 64bit/Linux    
SCIP version 9.2.4 (a94f778ac8)
Copyright (c) 2002-2025 Zuse Institute Berlin (ZIB)

External libraries: 
  CPLEX 22.1.2.0       Linear Programming Solver developed by IBM (www.cplex.com)
  CppAD 20180000.0     Algorithmic Differentiation of C++ algorithms developed by B. Bell (github.com/coin-or/CppAD)
  PaPILO 2.4.4         parallel presolve for integer and linear optimization (github.com/scipopt/papilo) (built with TBB) [GitHash: 7c826d50]
  Nauty 2.8.9          Computing Graph Automorphism Groups by Brendan D. McKay (users.cecs.anu.edu.au/~bdm/nauty)
  sassy 1.1            Symmetry preprocessor by Markus Anders (github.com/markusa4/sassy)
  Ipopt 3.14.19        Interior Point Optimizer developed by A. Waechter et.al. (github.com/coin-or/Ipopt)

reading option file /local/scratch/a/sgusev/repos/k_means/data/gams_scip_gdp.binary_multiplication/no_mode/2026-02-19_09-44-26/original/scip.opt
non-default parameter settings:
limits/time = 300
limits/gap = 1e-06
limits/absgap = 1e-10
lp/threads = 1
misc/printreason = FALSE
numerics/dualfeastol = 1e-06
parallel/maxnthreads = 1
nlpi/ipopt/linear_solver = "ma27"
nlpi/ipopt/linear_system_scaling = "mc19"

original problem has 58 variables (40 bin, 0 int, 18 cont) and 53 constraints

all 1 solutions given by solution candidate storage are infeasible

presolving:
(round 1, exhaustive) 0 del vars, 0 del conss, 0 add conss, 0 chg bounds, 0 chg sides, 0 chg coeffs, 10 upgd conss, 0 impls, 10 clqs
   (0.0s) probing cycle finished: starting next cycle
   (0.0s) symmetry computation started: requiring (bin +, int +, cont +), (fixed: bin -, int -, cont -)
   (0.0s) no symmetry present (symcode time: 0.00)
presolving (2 rounds: 2 fast, 2 medium, 2 exhaustive):
 0 deleted vars, 0 deleted constraints, 0 added constraints, 0 tightened bounds, 0 added holes, 0 changed sides, 0 changed coefficients
 0 implications, 10 cliques
presolved problem has 58 variables (40 bin, 0 int, 0 impl, 18 cont) and 53 constraints
     10 constraints of type <setppc>
      3 constraints of type <linear>
     40 constraints of type <nonlinear>
Presolving Time: 0.01

 time | node  | left  |LP iter|LP it/n|mem/heur|mdpt |vars |cons |rows |cuts |sepa|confs|strbr|  dualbound   | primalbound  |  gap   | compl. 
  0.1s|     1 |     0 |     0 |     - |  2921k |   0 | 306 |  53 | 189 |   0 |  0 |   0 |   0 | 0.000000e+00 |      --      |    Inf | unknown
L 0.1s|     1 |     0 |     0 |     - |undercov|   0 | 306 |  53 | 189 |   0 |  0 |   0 |   0 | 0.000000e+00 | 4.000000e+02 |    Inf | unknown
L 0.1s|     1 |     0 |     0 |     - |undercov|   0 | 306 |  53 | 189 |   0 |  0 |   0 |   0 | 0.000000e+00 | 5.401662e+00 |    Inf | unknown
  0.1s|     1 |     0 |    24 |     - |  3048k |   0 | 306 |  53 | 200 |  11 |  1 |   0 |   0 | 0.000000e+00 | 5.401662e+00 |    Inf | unknown
  0.1s|     1 |     0 |    24 |     - |  3050k |   0 | 306 |  53 | 200 |  11 |  1 |   0 |   0 | 0.000000e+00 | 5.401662e+00 |    Inf | unknown
  0.1s|     1 |     0 |    49 |     - |  3097k |   0 | 306 |  53 | 210 |  21 |  2 |   0 |   0 | 0.000000e+00 | 5.401662e+00 |    Inf | unknown
  0.1s|     1 |     0 |    78 |     - |  3140k |   0 | 306 |  53 | 224 |  35 |  3 |   0 |   0 | 0.000000e+00 | 5.401662e+00 |    Inf | unknown
  0.1s|     1 |     0 |   109 |     - |  3185k |   0 | 306 |  53 | 240 |  51 |  4 |   0 |   0 | 0.000000e+00 | 5.401662e+00 |    Inf | unknown
  0.1s|     1 |     0 |   139 |     - |  3211k |   0 | 306 |  53 | 255 |  66 |  5 |   0 |   0 | 0.000000e+00 | 5.401662e+00 |    Inf | unknown
  0.1s|     1 |     0 |   191 |     - |  3365k |   0 | 306 |  53 | 272 |  83 |  6 |   0 |   0 | 0.000000e+00 | 5.401662e+00 |    Inf | unknown
  0.1s|     1 |     0 |   261 |     - |  3396k |   0 | 306 |  53 | 285 |  96 |  7 |   0 |   0 | 0.000000e+00 | 5.401662e+00 |    Inf | unknown
  0.1s|     1 |     0 |   299 |     - |  3444k |   0 | 306 |  53 | 296 | 107 |  8 |   0 |   0 | 0.000000e+00 | 5.401662e+00 |    Inf | unknown
  0.1s|     1 |     0 |   322 |     - |  3509k |   0 | 306 |  53 | 309 | 120 |  9 |   0 |   0 | 0.000000e+00 | 5.401662e+00 |    Inf | unknown
  0.1s|     1 |     0 |   347 |     - |  3547k |   0 | 306 |  53 | 320 | 131 | 10 |   0 |   0 | 0.000000e+00 | 5.401662e+00 |    Inf | unknown
  0.1s|     1 |     0 |   365 |     - |  3594k |   0 | 306 |  53 | 329 | 140 | 11 |   0 |   0 | 0.000000e+00 | 5.401662e+00 |    Inf | unknown
 time | node  | left  |LP iter|LP it/n|mem/heur|mdpt |vars |cons |rows |cuts |sepa|confs|strbr|  dualbound   | primalbound  |  gap   | compl. 
  0.1s|     1 |     0 |   384 |     - |  3731k |   0 | 306 |  53 | 233 | 148 | 12 |   0 |   0 | 0.000000e+00 | 5.401662e+00 |    Inf | unknown
  0.2s|     1 |     0 |   394 |     - |  3757k |   0 | 306 |  53 | 243 | 158 | 13 |   0 |   0 | 0.000000e+00 | 5.401662e+00 |    Inf | unknown
  0.2s|     1 |     0 |   408 |     - |  3783k |   0 | 306 |  53 | 254 | 169 | 14 |   0 |   0 | 0.000000e+00 | 5.401662e+00 |    Inf | unknown
  0.2s|     1 |     0 |   418 |     - |  3819k |   0 | 306 |  53 | 261 | 176 | 15 |   0 |   0 | 0.000000e+00 | 5.401662e+00 |    Inf | unknown
  0.2s|     1 |     0 |   435 |     - |  3848k |   0 | 306 |  53 | 269 | 184 | 16 |   0 |   0 | 0.000000e+00 | 5.401662e+00 |    Inf | unknown
L 0.6s|     1 |     0 |   687 |     - |    rens|   0 | 306 |  53 | 269 | 184 | 16 |   0 |   0 | 0.000000e+00 | 2.056229e+00 |    Inf | unknown
  0.7s|     1 |     0 |   687 |     - |  4479k |   0 | 306 |  53 | 269 | 184 | 16 |   0 |   0 | 0.000000e+00 | 2.056229e+00 |    Inf | unknown
  0.7s|     1 |     0 |   709 |     - |  4509k |   0 | 306 |  53 | 280 | 195 | 17 |   0 |   0 | 0.000000e+00 | 2.056229e+00 |    Inf | unknown
  0.7s|     1 |     0 |   717 |     - |  4511k |   0 | 306 |  53 | 284 | 199 | 18 |   0 |   0 | 0.000000e+00 | 2.056229e+00 |    Inf | unknown
  0.7s|     1 |     2 |   717 |     - |  4518k |   0 | 306 |  53 | 284 | 199 | 18 |   0 |  16 | 0.000000e+00 | 2.056229e+00 |    Inf | unknown
d 0.7s|    10 |    11 |   964 |  55.4 |pscostdi|   7 | 306 |  53 | 208 | 356 |  2 |   0 |  16 | 0.000000e+00 | 1.751804e+00 |    Inf | unknown
d 1.1s|    89 |    80 |  5617 |  58.5 |nlpdivin|  14 | 306 |  53 | 261 |   0 |  5 |   6 |  88 | 0.000000e+00 | 1.621074e+00 |    Inf |   0.63%
  1.1s|   100 |    91 |  6167 |  57.6 |  6389k |  14 | 306 |  53 | 234 |2852 |  2 |   6 |  88 | 0.000000e+00 | 1.621074e+00 |    Inf |   0.63%
d 1.4s|   177 |   146 | 10961 |  59.6 |nlpdivin|  16 | 306 |  53 | 271 |4692 |  3 |   8 | 115 | 0.000000e+00 | 1.476265e+00 |    Inf |   6.84%
  1.4s|   200 |   157 | 12556 |  60.8 |  7315k |  16 | 306 |  53 | 249 |5313 |  7 |   8 | 119 | 0.000000e+00 | 1.476265e+00 |    Inf |  10.44%
 time | node  | left  |LP iter|LP it/n|mem/heur|mdpt |vars |cons |rows |cuts |sepa|confs|strbr|  dualbound   | primalbound  |  gap   | compl. 
d 1.6s|   245 |   176 | 14835 |  58.9 |pscostdi|  19 | 306 |  53 | 240 |6287 |  9 |   8 | 131 | 0.000000e+00 | 1.226003e+00 |    Inf |  16.85%
* 1.7s|   284 |   158 | 16344 |  56.1 |    LP  |  21 | 306 |  53 | 329 |7024 |  8 |   9 | 136 | 0.000000e+00 | 8.311610e-01 |    Inf |  21.22%
  1.7s|   300 |   156 | 16742 |  54.4 |  8323k |  21 | 306 |  53 |   0 |7197 |  0 |   9 | 141 | 0.000000e+00 | 8.311610e-01 |    Inf |  23.03%
* 1.9s|   364 |   164 | 19629 |  52.8 |    LP  |  21 | 306 |  53 | 332 |8239 |  8 |  11 | 150 | 0.000000e+00 | 7.489509e-01 |    Inf |  29.24%
* 1.9s|   365 |   140 | 19670 |  52.8 |    LP  |  21 | 306 |  53 | 340 |8265 |  9 |  11 | 150 | 0.000000e+00 | 6.412715e-01 |    Inf |  31.63%
  2.0s|   400 |   145 | 21243 |  52.1 |  9817k |  21 | 306 |  53 | 268 |8813 |  1 |  14 | 155 | 0.000000e+00 | 6.412715e-01 |    Inf |  32.46%
  2.2s|   500 |   145 | 25334 |  49.8 |    10M |  21 | 306 |  53 | 281 |  10k|  2 |  21 | 174 | 0.000000e+00 | 6.412715e-01 |    Inf |  36.97%
* 2.5s|   598 |   143 | 28733 |  47.4 |    LP  |  21 | 306 |  53 | 343 |  11k|  7 |  27 | 188 | 0.000000e+00 | 6.091663e-01 |    Inf |  41.88%
  2.5s|   600 |   141 | 28779 |  47.3 |    10M |  21 | 306 |  53 | 342 |  11k|  0 |  27 | 189 | 0.000000e+00 | 6.091663e-01 |    Inf |  42.12%
  2.7s|   700 |   135 | 31975 |  45.1 |    10M |  21 | 306 |  53 | 245 |  13k|  2 |  36 | 208 | 0.000000e+00 | 6.091663e-01 |    Inf |  52.98%
  2.9s|   800 |   131 | 35504 |  43.9 |    10M |  21 | 306 |  53 | 314 |  14k|  2 |  46 | 232 | 0.000000e+00 | 6.091663e-01 |    Inf |  60.21%
  3.1s|   900 |   121 | 38006 |  41.8 |    10M |  21 | 306 |  53 | 284 |  15k|  3 |  56 | 250 | 6.796286e-03 | 6.091663e-01 |8863.22%|  67.34%
  3.3s|  1000 |   131 | 40721 |  40.3 |    11M |  24 | 306 |  53 | 327 |  16k|  3 |  60 | 272 | 2.087997e-02 | 6.091663e-01 |2817.47%|  71.27%
  3.5s|  1100 |   129 | 43546 |  39.2 |    11M |  24 | 306 |  53 | 329 |  17k|  2 |  70 | 282 | 2.087997e-02 | 6.091663e-01 |2817.47%|  71.87%
* 3.5s|  1107 |   123 | 43697 |  39.1 |    LP  |  24 | 306 |  53 | 354 |  17k|  7 |  70 | 282 | 2.087997e-02 | 5.997396e-01 |2772.32%|  71.88%
 time | node  | left  |LP iter|LP it/n|mem/heur|mdpt |vars |cons |rows |cuts |sepa|confs|strbr|  dualbound   | primalbound  |  gap   | compl. 
  3.6s|  1200 |   112 | 45941 |  37.9 |    11M |  24 | 306 |  53 | 320 |  18k|  1 |  76 | 293 | 1.875724e-01 | 5.997396e-01 | 219.74%|  77.56%
  3.8s|  1300 |    94 | 48156 |  36.7 |    11M |  24 | 306 |  53 | 413 |  19k|  0 |  88 | 304 | 2.403880e-01 | 5.997396e-01 | 149.49%|  82.99%
  3.9s|  1400 |    80 | 49531 |  35.1 |    11M |  24 | 306 |  53 | 307 |  19k|  1 |  96 | 316 | 2.832384e-01 | 5.997396e-01 | 111.74%|  86.53%
  4.0s|  1500 |    54 | 50962 |  33.7 |    11M |  24 | 306 |  53 | 336 |  20k|  0 |  99 | 321 | 4.004528e-01 | 5.997396e-01 |  49.77%|  90.21%
  4.2s|  1600 |    22 | 52859 |  32.8 |    11M |  24 | 306 |  53 | 316 |  20k|  2 | 106 | 332 | 4.167119e-01 | 5.997396e-01 |  43.92%|  97.09%

SCIP Status        : problem is solved [optimal solution found]
Solving Time (sec) : 4.22
Solving Nodes      : 1644
Primal Bound       : +5.99739633881292e-01 (14 solutions)
Dual Bound         : +5.99739633881292e-01
Gap                : 0.00 %


--- Reading solution for model GAMS_MODEL
***
*** Solver did not provide marginals for model GAMS_MODEL
***
--- Executing after solve: elapsed 0:00:04.288
--- model.gms(238) 3 Mb
--- model.gms(401) 5 Mb
--- Putfile results /local/scratch/a/sgusev/repos/k_means/data/gams_scip_gdp.binary_multiplication/no_mode/2026-02-19_09-44-26/original/results.dat
--- Putfile statresults /local/scratch/a/sgusev/repos/k_means/data/gams_scip_gdp.binary_multiplication/no_mode/2026-02-19_09-44-26/original/resultsstat.dat
*** Status: Normal completion
--- Job model.gms Stop 02/19/26 09:44:31 elapsed 0:00:04.288
Original problem solved. Time taken: 4.784485578536987 seconds
Original objective value: 0.599739633881291
